rcpsp/heur_output_or_constraints/Log=5/heurj90.txt
encoding rcpsp/j90.sm/j9017_3.sm nv: 362160 nc: 885007 enctime: 16.75
encoding rcpsp/j90.sm/j9017_3.sm nv: 69120 nc: 165838 enctime: 1.86
c File: j9017_3.smnaiveor5.wcnf
c optimal
c final solution cost: 85
c CPU time: 6.971502
s OPTIMUM FOUND

c File: j9017_3.smor5.wcnf
c optimal
c final solution cost: 85
c CPU time: 0.851747
s OPTIMUM FOUND


rcpsp/heur_output_or_constraints/Log=5/heurj90.txt
encoding rcpsp/j90.sm/j9017_4.sm nv: 352824 nc: 854959 enctime: 15.54
encoding rcpsp/j90.sm/j9017_4.sm nv: 69540 nc: 165712 enctime: 1.46
c File: j9017_4.smnaiveor5.wcnf
c optimal
c final solution cost: 93
c CPU time: 33.068181
s OPTIMUM FOUND

c File: j9017_4.smor5.wcnf
c optimal
c final solution cost: 93
c CPU time: 0.356383
s OPTIMUM FOUND


rcpsp/heur_output_or_constraints/Log=5/heurj90.txt
encoding rcpsp/j90.sm/j9017_5.sm nv: 315324 nc: 765147 enctime: 14.98
encoding rcpsp/j90.sm/j9017_5.sm nv: 66348 nc: 158359 enctime: 1.64
c File: j9017_5.smnaiveor5.wcnf
c optimal
c final solution cost: 82
c CPU time: 6.717751
s OPTIMUM FOUND

c File: j9017_5.smor5.wcnf
c optimal
c final solution cost: 82
c CPU time: 0.675151
s OPTIMUM FOUND


rcpsp/heur_output_or_constraints/Log=5/heurj90.txt
encoding rcpsp/j90.sm/j9017_6.sm nv: 364270 nc: 892489 enctime: 16.51
encoding rcpsp/j90.sm/j9017_6.sm nv: 73000 nc: 175885 enctime: 1.78
c File: j9017_6.smnaiveor5.wcnf
c optimal
c final solution cost: 82
c CPU time: 11.459527
s OPTIMUM FOUND

c File: j9017_6.smor5.wcnf
c optimal
c final solution cost: 82
c CPU time: 0.699561
s OPTIMUM FOUND


rcpsp/heur_output_or_constraints/Log=5/heurj90.txt
encoding rcpsp/j90.sm/j9017_7.sm nv: 367284 nc: 884848 enctime: 15.84
encoding rcpsp/j90.sm/j9017_7.sm nv: 66294 nc: 156863 enctime: 1.69
c File: j9017_7.smnaiveor5.wcnf
c optimal
c final solution cost: 73
c CPU time: 4.812857
s OPTIMUM FOUND

c File: j9017_7.smor5.wcnf
c optimal
c final solution cost: 73
c CPU time: 0.647858
s OPTIMUM FOUND


rcpsp/heur_output_or_constraints/Log=5/heurj90.txt
encoding rcpsp/j90.sm/j9017_8.sm nv: 338016 nc: 844243 enctime: 18.01
encoding rcpsp/j90.sm/j9017_8.sm nv: 81312 nc: 200191 enctime: 1.96
c File: j9017_8.smnaiveor5.wcnf
c optimal
c final solution cost: 92
c CPU time: 13.226529
s OPTIMUM FOUND

c File: j9017_8.smor5.wcnf
c optimal
c final solution cost: 92
c CPU time: 1.410506
s OPTIMUM FOUND


rcpsp/heur_output_or_constraints/Log=5/heurj90.txt
encoding rcpsp/j90.sm/j9017_9.sm nv: 293304 nc: 738871 enctime: 14.20
encoding rcpsp/j90.sm/j9017_9.sm nv: 58176 nc: 143679 enctime: 0.77
c File: j9017_9.smnaiveor5.wcnf
c optimal
c final solution cost: 81
c CPU time: 52.785075
s OPTIMUM FOUND

c File: j9017_9.smor5.wcnf
c optimal
c final solution cost: 81
c CPU time: 2.856948
s OPTIMUM FOUND


rcpsp/heur_output_or_constraints/Log=5/heurj90.txt
encoding rcpsp/j90.sm/j901_7.sm nv: 345744 nc: 845561 enctime: 15.89
encoding rcpsp/j90.sm/j901_7.sm nv: 67914 nc: 163136 enctime: 0.88
c File: j901_7.smnaiveor5.wcnf
c optimal
c final solution cost: 86
c CPU time: 27.881199
s OPTIMUM FOUND

c File: j901_7.smor5.wcnf
c optimal
c final solution cost: 86
c CPU time: 1.164344
s OPTIMUM FOUND


rcpsp/heur_output_or_constraints/Log=5/heurj90.txt
encoding rcpsp/j90.sm/j9018_10.sm nv: 446985 nc: 1046359 enctime: 18.41
encoding rcpsp/j90.sm/j9018_10.sm nv: 74046 nc: 170386 enctime: 0.92
c File: j9018_10.smnaiveor5.wcnf
c optimal
c final solution cost: 77
c CPU time: 5.779162
s OPTIMUM FOUND

c File: j9018_10.smor5.wcnf
c optimal
c final solution cost: 77
c CPU time: 0.419798
s OPTIMUM FOUND


rcpsp/heur_output_or_constraints/Log=5/heurj90.txt
encoding rcpsp/j90.sm/j9018_1.sm nv: 501270 nc: 1191883 enctime: 22.10
encoding rcpsp/j90.sm/j9018_1.sm nv: 99510 nc: 233275 enctime: 2.20
c File: j9018_1.smnaiveor5.wcnf
c optimal
c final solution cost: 101
c CPU time: 4.643235
s OPTIMUM FOUND

c File: j9018_1.smor5.wcnf
c optimal
c final solution cost: 101
c CPU time: 0.353243
s OPTIMUM FOUND


rcpsp/heur_output_or_constraints/Log=5/heurj90.txt
encoding rcpsp/j90.sm/j9018_2.sm nv: 445005 nc: 1041774 enctime: 18.10
encoding rcpsp/j90.sm/j9018_2.sm nv: 85405 nc: 196974 enctime: 1.62
c File: j9018_2.smnaiveor5.wcnf
c optimal
c final solution cost: 91
c CPU time: 3.780359
s OPTIMUM FOUND

c File: j9018_2.smor5.wcnf
c optimal
c final solution cost: 91
c CPU time: 0.281971
s OPTIMUM FOUND


rcpsp/heur_output_or_constraints/Log=5/heurj90.txt
encoding rcpsp/j90.sm/j9018_3.sm nv: 455088 nc: 1067138 enctime: 20.35
encoding rcpsp/j90.sm/j9018_3.sm nv: 65664 nc: 150796 enctime: 1.57
c File: j9018_3.smnaiveor5.wcnf
c optimal
c final solution cost: 70
c CPU time: 3.602278
s OPTIMUM FOUND

c File: j9018_3.smor5.wcnf
c optimal
c final solution cost: 70
c CPU time: 0.218727
s OPTIMUM FOUND


rcpsp/heur_output_or_constraints/Log=5/heurj90.txt
encoding rcpsp/j90.sm/j9018_4.sm nv: 538965 nc: 1257590 enctime: 22.07
encoding rcpsp/j90.sm/j9018_4.sm nv: 75110 nc: 171758 enctime: 1.53
c File: j9018_4.smnaiveor5.wcnf
c optimal
c final solution cost: 68
c CPU time: 6.790501
s OPTIMUM FOUND

c File: j9018_4.smor5.wcnf
c optimal
c final solution cost: 68
c CPU time: 0.383087
s OPTIMUM FOUND


rcpsp/heur_output_or_constraints/Log=5/heurj90.txt
encoding rcpsp/j90.sm/j9018_5.sm nv: 429936 nc: 1019290 enctime: 19.97
encoding rcpsp/j90.sm/j9018_5.sm nv: 74624 nc: 173748 enctime: 0.94
c File: j9018_5.smnaiveor5.wcnf
c optimal
c final solution cost: 79
c CPU time: 4.580000
s OPTIMUM FOUND

c File: j9018_5.smor5.wcnf
c optimal
c final solution cost: 79
c CPU time: 0.342906
s OPTIMUM FOUND


rcpsp/heur_output_or_constraints/Log=5/heurj90.txt
encoding rcpsp/j90.sm/j9018_6.sm nv: 471225 nc: 1109481 enctime: 19.45
encoding rcpsp/j90.sm/j9018_6.sm nv: 76860 nc: 177659 enctime: 1.82
c File: j9018_6.smnaiveor5.wcnf
c timeout
c final solution cost: 177
c CPU time: 63.803890
s UNKNOWN

c File: j9018_6.smor5.wcnf
c optimal
c final solution cost: 72
c CPU time: 0.331836
s OPTIMUM FOUND


rcpsp/heur_output_or_constraints/Log=5/heurj90.txt
encoding rcpsp/j90.sm/j9018_7.sm nv: 370648 nc: 851003 enctime: 13.83
encoding rcpsp/j90.sm/j9018_7.sm nv: 60776 nc: 137139 enctime: 1.32
c File: j9018_7.smnaiveor5.wcnf
c optimal
c final solution cost: 69
c CPU time: 3.537068
s OPTIMUM FOUND

c File: j9018_7.smor5.wcnf
c optimal
c final solution cost: 69
c CPU time: 0.178050
s OPTIMUM FOUND


rcpsp/heur_output_or_constraints/Log=5/heurj90.txt
encoding rcpsp/j90.sm/j9018_8.sm nv: 542270 nc: 1249258 enctime: 20.83
encoding rcpsp/j90.sm/j9018_8.sm nv: 96005 nc: 217984 enctime: 2.23
c File: j9018_8.smnaiveor5.wcnf
c optimal
c final solution cost: 90
c CPU time: 5.524420
s OPTIMUM FOUND

c File: j9018_8.smor5.wcnf
c optimal
c final solution cost: 90
c CPU time: 0.322599
s OPTIMUM FOUND


rcpsp/heur_output_or_constraints/Log=5/heurj90.txt
encoding rcpsp/j90.sm/j9018_9.sm nv: 493525 nc: 1115589 enctime: 17.96
encoding rcpsp/j90.sm/j9018_9.sm nv: 89354 nc: 199105 enctime: 1.60
c File: j9018_9.smnaiveor5.wcnf
c optimal
c final solution cost: 79
c CPU time: 3.392249
s OPTIMUM FOUND

c File: j9018_9.smor5.wcnf
c optimal
c final solution cost: 79
c CPU time: 0.236598
s OPTIMUM FOUND


rcpsp/heur_output_or_constraints/Log=5/heurj90.txt
encoding rcpsp/j90.sm/j901_8.sm nv: 380712 nc: 954088 enctime: 16.55
encoding rcpsp/j90.sm/j901_8.sm nv: 69600 nc: 170944 enctime: 1.45
c File: j901_8.smnaiveor5.wcnf
c optimal
c final solution cost: 86
c CPU time: 22.232291
s OPTIMUM FOUND

c File: j901_8.smor5.wcnf
c optimal
c final solution cost: 86
c CPU time: 12.085620
s OPTIMUM FOUND


rcpsp/heur_output_or_constraints/Log=5/heurj90.txt
encoding rcpsp/j90.sm/j9019_10.sm nv: 589920 nc: 1304896 enctime: 17.82
encoding rcpsp/j90.sm/j9019_10.sm nv: 110610 nc: 241756 enctime: 2.10
c File: j9019_10.smnaiveor5.wcnf
c optimal
c final solution cost: 85
c CPU time: 3.583695
s OPTIMUM FOUND

c File: j9019_10.smor5.wcnf
c optimal
c final solution cost: 85
c CPU time: 0.280577
s OPTIMUM FOUND


rcpsp/heur_output_or_constraints/Log=5/heurj90.txt
encoding rcpsp/j90.sm/j9019_1.sm nv: 529659 nc: 1212019 enctime: 18.52
encoding rcpsp/j90.sm/j9019_1.sm nv: 101088 nc: 228300 enctime: 1.92
c File: j9019_1.smnaiveor5.wcnf
c optimal
c final solution cost: 94
c CPU time: 3.838473
s OPTIMUM FOUND

c File: j9019_1.smor5.wcnf
c optimal
c final solution cost: 94
c CPU time: 0.279772
s OPTIMUM FOUND


rcpsp/heur_output_or_constraints/Log=5/heurj90.txt
encoding rcpsp/j90.sm/j9019_2.sm nv: 509220 nc: 1133695 enctime: 16.03
encoding rcpsp/j90.sm/j9019_2.sm nv: 81918 nc: 179503 enctime: 0.92
c File: j9019_2.smnaiveor5.wcnf
c optimal
c final solution cost: 73
c CPU time: 3.252979
s OPTIMUM FOUND

c File: j9019_2.smor5.wcnf
c optimal
c final solution cost: 73
c CPU time: 0.195650
s OPTIMUM FOUND


rcpsp/heur_output_or_constraints/Log=5/heurj90.txt
encoding rcpsp/j90.sm/j9019_3.sm nv: 566724 nc: 1276703 enctime: 21.38
encoding rcpsp/j90.sm/j9019_3.sm nv: 85350 nc: 189170 enctime: 2.01
c File: j9019_3.smnaiveor5.wcnf
c optimal
c final solution cost: 72
c CPU time: 3.947145
s OPTIMUM FOUND

c File: j9019_3.smor5.wcnf
c optimal
c final solution cost: 72
c CPU time: 0.235105
s OPTIMUM FOUND


rcpsp/heur_output_or_constraints/Log=5/heurj90.txt
encoding rcpsp/j90.sm/j9019_4.sm nv: 616512 nc: 1395936 enctime: 21.95
encoding rcpsp/j90.sm/j9019_4.sm nv: 81472 nc: 181096 enctime: 0.93
c File: j9019_4.smnaiveor5.wcnf
c optimal
c final solution cost: 63
c CPU time: 5.868685
s OPTIMUM FOUND

c File: j9019_4.smor5.wcnf
c optimal
c final solution cost: 63
c CPU time: 0.340093
s OPTIMUM FOUND


rcpsp/heur_output_or_constraints/Log=5/heurj90.txt
encoding rcpsp/j90.sm/j9019_5.sm nv: 445718 nc: 966248 enctime: 13.77
encoding rcpsp/j90.sm/j9019_5.sm nv: 69678 nc: 148888 enctime: 1.35
c File: j9019_5.smnaiveor5.wcnf
c optimal
c final solution cost: 57
c CPU time: 2.869552
s OPTIMUM FOUND

c File: j9019_5.smor5.wcnf
c optimal
c final solution cost: 57
c CPU time: 0.204873
s OPTIMUM FOUND


rcpsp/heur_output_or_constraints/Log=5/heurj90.txt
encoding rcpsp/j90.sm/j9019_6.sm nv: 513080 nc: 1186875 enctime: 22.27
encoding rcpsp/j90.sm/j9019_6.sm nv: 103020 nc: 235211 enctime: 1.26
c File: j9019_6.smnaiveor5.wcnf
c optimal
c final solution cost: 101
c CPU time: 3.703195
s OPTIMUM FOUND

c File: j9019_6.smor5.wcnf
c optimal
c final solution cost: 101
c CPU time: 0.289524
s OPTIMUM FOUND


rcpsp/heur_output_or_constraints/Log=5/heurj90.txt
encoding rcpsp/j90.sm/j9019_7.sm nv: 483345 nc: 1091739 enctime: 16.94
encoding rcpsp/j90.sm/j9019_7.sm nv: 69345 nc: 153739 enctime: 1.49
c File: j9019_7.smnaiveor5.wcnf
c optimal
c final solution cost: 62
c CPU time: 4.401848
s OPTIMUM FOUND

c File: j9019_7.smor5.wcnf
c optimal
c final solution cost: 62
c CPU time: 0.269588
s OPTIMUM FOUND


rcpsp/heur_output_or_constraints/Log=5/heurj90.txt
encoding rcpsp/j90.sm/j9019_8.sm nv: 521220 nc: 1199765 enctime: 21.26
encoding rcpsp/j90.sm/j9019_8.sm nv: 77672 nc: 175525 enctime: 0.90
c File: j9019_8.smnaiveor5.wcnf
c optimal
c final solution cost: 74
c CPU time: 4.314937
s OPTIMUM FOUND

c File: j9019_8.smor5.wcnf
c optimal
c final solution cost: 74
c CPU time: 0.204374
s OPTIMUM FOUND


rcpsp/heur_output_or_constraints/Log=5/heurj90.txt
encoding rcpsp/j90.sm/j9019_9.sm nv: 580482 nc: 1350838 enctime: 23.24
encoding rcpsp/j90.sm/j9019_9.sm nv: 112455 nc: 258338 enctime: 2.12
c File: j9019_9.smnaiveor5.wcnf
c optimal
c final solution cost: 104
c CPU time: 5.051747
s OPTIMUM FOUND

c File: j9019_9.smor5.wcnf
c optimal
c final solution cost: 104
c CPU time: 0.323405
s OPTIMUM FOUND


rcpsp/heur_output_or_constraints/Log=5/heurj90.txt
encoding rcpsp/j90.sm/j901_9.sm nv: 360714 nc: 848407 enctime: 13.29
encoding rcpsp/j90.sm/j901_9.sm nv: 60880 nc: 140389 enctime: 1.48
c File: j901_9.smnaiveor5.wcnf
c optimal
c final solution cost: 63
c CPU time: 10.422206
s OPTIMUM FOUND

c File: j901_9.smor5.wcnf
c optimal
c final solution cost: 63
c CPU time: 2.777170
s OPTIMUM FOUND


rcpsp/heur_output_or_constraints/Log=5/heurj90.txt
encoding rcpsp/j90.sm/j9020_10.sm nv: 494400 nc: 1145163 enctime: 20.00
encoding rcpsp/j90.sm/j9020_10.sm nv: 72000 nc: 163523 enctime: 1.71
c File: j9020_10.smnaiveor5.wcnf
c optimal
c final solution cost: 73
c CPU time: 4.084266
s OPTIMUM FOUND

c File: j9020_10.smor5.wcnf
c optimal
c final solution cost: 73
c CPU time: 0.219529
s OPTIMUM FOUND


rcpsp/heur_output_or_constraints/Log=5/heurj90.txt
encoding rcpsp/j90.sm/j9020_1.sm nv: 664224 nc: 1506430 enctime: 24.23
encoding rcpsp/j90.sm/j9020_1.sm nv: 106227 nc: 237341 enctime: 2.35
c File: j9020_1.smnaiveor5.wcnf
c optimal
c final solution cost: 85
c CPU time: 4.970414
s OPTIMUM FOUND

c File: j9020_1.smor5.wcnf
c optimal
c final solution cost: 85
c CPU time: 0.310364
s OPTIMUM FOUND


rcpsp/heur_output_or_constraints/Log=5/heurj90.txt
encoding rcpsp/j90.sm/j9020_2.sm nv: 572142 nc: 1288313 enctime: 21.69
encoding rcpsp/j90.sm/j9020_2.sm nv: 87934 nc: 194817 enctime: 1.95
c File: j9020_2.smnaiveor5.wcnf
c optimal
c final solution cost: 76
c CPU time: 4.035719
s OPTIMUM FOUND

c File: j9020_2.smor5.wcnf
c optimal
c final solution cost: 76
c CPU time: 0.202493
s OPTIMUM FOUND


rcpsp/heur_output_or_constraints/Log=5/heurj90.txt
encoding rcpsp/j90.sm/j9020_3.sm nv: 693384 nc: 1542620 enctime: 23.53
encoding rcpsp/j90.sm/j9020_3.sm nv: 102872 nc: 225460 enctime: 2.29
c File: j9020_3.smnaiveor5.wcnf
c optimal
c final solution cost: 76
c CPU time: 4.878374
s OPTIMUM FOUND

c File: j9020_3.smor5.wcnf
c optimal
c final solution cost: 76
c CPU time: 0.274345
s OPTIMUM FOUND


rcpsp/heur_output_or_constraints/Log=5/heurj90.txt
encoding rcpsp/j90.sm/j9020_4.sm nv: 613500 nc: 1373345 enctime: 22.51
encoding rcpsp/j90.sm/j9020_4.sm nv: 98160 nc: 216665 enctime: 1.89
c File: j9020_4.smnaiveor5.wcnf
c optimal
c final solution cost: 78
c CPU time: 4.375119
s OPTIMUM FOUND

c File: j9020_4.smor5.wcnf
c optimal
c final solution cost: 78
c CPU time: 0.254209
s OPTIMUM FOUND


rcpsp/heur_output_or_constraints/Log=5/heurj90.txt
encoding rcpsp/j90.sm/j9020_5.sm nv: 606900 nc: 1341105 enctime: 21.92
encoding rcpsp/j90.sm/j9020_5.sm nv: 102000 nc: 222405 enctime: 1.20
c File: j9020_5.smnaiveor5.wcnf
c optimal
c final solution cost: 79
c CPU time: 3.819706
s OPTIMUM FOUND

c File: j9020_5.smor5.wcnf
c optimal
c final solution cost: 79
c CPU time: 0.259527
s OPTIMUM FOUND


rcpsp/heur_output_or_constraints/Log=5/heurj90.txt
encoding rcpsp/j90.sm/j9020_6.sm nv: 635290 nc: 1409621 enctime: 23.09
encoding rcpsp/j90.sm/j9020_6.sm nv: 79254 nc: 172463 enctime: 0.85
c File: j9020_6.smnaiveor5.wcnf
c optimal
c final solution cost: 62
c CPU time: 4.650377
s OPTIMUM FOUND

c File: j9020_6.smor5.wcnf
c optimal
c final solution cost: 62
c CPU time: 0.203870
s OPTIMUM FOUND


rcpsp/heur_output_or_constraints/Log=5/heurj90.txt
encoding rcpsp/j90.sm/j9020_7.sm nv: 672438 nc: 1457816 enctime: 22.80
encoding rcpsp/j90.sm/j9020_7.sm nv: 111840 nc: 239578 enctime: 2.17
c File: j9020_7.smnaiveor5.wcnf
c optimal
c final solution cost: 79
c CPU time: 3.898913
s OPTIMUM FOUND

c File: j9020_7.smor5.wcnf
c optimal
c final solution cost: 79
c CPU time: 0.271216
s OPTIMUM FOUND


rcpsp/heur_output_or_constraints/Log=5/heurj90.txt
encoding rcpsp/j90.sm/j9020_8.sm nv: 652540 nc: 1484877 enctime: 24.56
encoding rcpsp/j90.sm/j9020_8.sm nv: 101480 nc: 227246 enctime: 1.16
c File: j9020_8.smnaiveor5.wcnf
c optimal
c final solution cost: 85
c CPU time: 4.905417
s OPTIMUM FOUND

c File: j9020_8.smor5.wcnf
c optimal
c final solution cost: 85
c CPU time: 0.270368
s OPTIMUM FOUND


rcpsp/heur_output_or_constraints/Log=5/heurj90.txt
encoding rcpsp/j90.sm/j9020_9.sm nv: 524025 nc: 1131838 enctime: 17.88
encoding rcpsp/j90.sm/j9020_9.sm nv: 78912 nc: 167968 enctime: 0.83
c File: j9020_9.smnaiveor5.wcnf
c optimal
c final solution cost: 63
c CPU time: 3.093566
s OPTIMUM FOUND

c File: j9020_9.smor5.wcnf
c optimal
c final solution cost: 63
c CPU time: 0.189018
s OPTIMUM FOUND


